Bruniera/ragionamento automatico/progetto/benchmark/asp/mid29.lp
start(0).
limit(6).
n(14).
strada(0,3,16).
strada(0,7,6).
strada(0,10,8).
strada(0,11,14).
strada(1,10,2).
strada(1,11,5).
strada(2,1,14).
strada(2,3,8).
strada(2,9,4).
strada(2,10,9).
strada(2,13,9).
strada(3,1,10).
strada(3,6,19).
strada(3,8,19).
strada(3,9,11).
strada(4,1,15).
strada(4,2,6).
strada(4,3,2).
strada(4,5,12).
strada(4,6,20).
strada(4,8,9).
strada(4,10,11).
strada(5,2,19).
strada(5,3,14).
strada(5,6,2).
strada(5,7,11).
strada(5,12,19).
strada(6,0,7).
strada(6,2,9).
strada(6,3,12).
strada(6,8,5).
strada(6,9,17).
strada(6,10,2).
strada(6,12,10).
strada(6,13,9).
strada(7,0,7).
strada(7,2,0).
strada(7,3,9).
strada(7,4,15).
strada(7,10,12).
strada(7,12,11).
strada(7,13,18).
strada(8,0,1).
strada(8,5,10).
strada(8,6,11).
strada(8,12,16).
strada(9,0,3).
strada(9,1,11).
strada(9,4,11).
strada(9,5,10).
strada(9,6,15).
strada(9,7,13).
strada(9,12,2).
strada(9,13,20).
strada(10,1,17).
strada(10,4,2).
strada(10,5,12).
strada(10,6,5).
strada(10,7,11).
strada(10,8,14).
strada(10,9,3).
strada(10,13,17).
strada(11,1,17).
strada(11,2,13).
strada(11,9,9).
strada(11,10,19).
strada(11,12,4).
strada(12,1,18).
strada(12,3,4).
strada(12,6,4).
strada(12,8,8).
strada(12,9,4).
strada(12,11,14).
strada(13,0,15).
strada(13,2,1).
strada(13,3,5).
strada(13,6,19).
strada(13,7,16).
strada(13,8,13).
strada(13,9,8).
strada(13,10,13).
strada(13,11,10).
strada(13,12,11).
