Bruniera/ragionamento automatico/progetto/benchmark/minizinc/mid29.dzn
start = 1;
limit = 6;
n = 14;
m=[|-1,-1,-1,16,-1,-1,-1,6,-1,-1,8,14,-1,-1,
|-1,-1,-1,-1,-1,-1,-1,-1,-1,-1,2,5,-1,-1,
|-1,14,-1,8,-1,-1,-1,-1,-1,4,9,-1,-1,9,
|-1,10,-1,-1,-1,-1,19,-1,19,11,-1,-1,-1,-1,
|-1,15,6,2,-1,12,20,-1,9,-1,11,-1,-1,-1,
|-1,-1,19,14,-1,-1,2,11,-1,-1,-1,-1,19,-1,
|7,-1,9,12,-1,-1,-1,-1,5,17,2,-1,10,9,
|7,-1,0,9,15,-1,-1,-1,-1,-1,12,-1,11,18,
|1,-1,-1,-1,-1,10,11,-1,-1,-1,-1,-1,16,-1,
|3,11,-1,-1,11,10,15,13,-1,-1,-1,-1,2,20,
|-1,17,-1,-1,2,12,5,11,14,3,-1,-1,-1,17,
|-1,17,13,-1,-1,-1,-1,-1,-1,9,19,-1,4,-1,
|-1,18,-1,4,-1,-1,4,-1,8,4,-1,14,-1,-1,
|15,-1,1,5,-1,-1,19,16,13,8,13,10,11,-1,
|]
;